results/res_prop_muc/res_Cimatti_mathsat_cores/QF_RDL/fischer6-mutex-8.smt.smt2.out
### boolMucExtractionTime 5958598
