results/res_prop_muc/res_Cimatti_mathsat_cores/QF_RDL/fischer6-mutex-8.smt.smt2.res
unsat
( c100
  c1002
  c1003
  c1004
  c1005
  c1006
  c1007
  c1008
  c1009
  c1010
  c1011
  c1012
  c1013
  c1014
  c1015
  c1016
  c1017
  c1025
  c1026
  c1028
  c1038
  c1039
  c104
  c1041
  c1046
  c1047
  c1051
  c1054
  c1057
  c1059
  c1060
  c1068
  c1069
  c107
  c1070
  c1076
  c1078
  c1084
  c1085
  c1086
  c1087
  c1088
  c1089
  c109
  c1090
  c1091
  c1092
  c1093
  c1094
  c1095
  c1096
  c1097
  c1098
  c1099
  c110
  c1107
  c1108
  c1110
  c1117
  c1121
  c1128
  c1129
  c1133
  c1136
  c1139
  c1141
  c1142
  c1150
  c1151
  c1152
  c1158
  c1160
  c1166
  c1167
  c1168
  c1169
  c1170
  c1171
  c1172
  c1173
  c1174
  c1175
  c1176
  c1177
  c1178
  c1179
  c118
  c1180
  c1181
  c1190
  c1192
  c1199
  c1202
  c1210
  c1211
  c1215
  c1218
  c122
  c1221
  c1223
  c1232
  c1233
  c1234
  c1240
  c1242
  c1248
  c1249
  c125
  c1250
  c1251
  c1252
  c1253
  c1254
  c1255
  c1256
  c1257
  c1258
  c1259
  c1260
  c1261
  c1262
  c1263
  c1271
  c1272
  c1282
  c1286
  c129
  c1290
  c1294
  c1298
  c13
  c1302
  c1306
  c131
  c1310
  c1314
  c1318
  c1322
  c1326
  c139
  c1404
  c1405
  c1406
  c1407
  c1408
  c1409
  c1410
  c1411
  c1412
  c1413
  c1414
  c1415
  c142
  c1422
  c1426
  c1430
  c1434
  c1438
  c1442
  c1446
  c145
  c1450
  c1454
  c1458
  c146
  c1462
  c1464
  c1465
  c147
  c1476
  c1477
  c1480
  c1485
  c1486
  c149
  c1490
  c1496
  c1498
  c1499
  c150
  c1504
  c1508
  c1510
  c1512
  c1515
  c1516
  c152
  c1523
  c1525
  c1528
  c153
  c1531
  c1532
  c1533
  c1534
  c1535
  c1536
  c1537
  c1538
  c1539
  c1540
  c1541
  c1542
  c1543
  c1544
  c1545
  c1546
  c155
  c1554
  c1555
  c156
  c1564
  c1568
  c1570
  c1574
  c1575
  c158
  c1580
  c1586
  c1588
  c1589
  c159
  c1593
  c1596
  c1597
  c1599
  c1605
  c1607
  c1610
  c1613
  c1614
  c1615
  c1616
  c1617
  c1618
  c1619
  c1620
  c1621
  c1622
  c1623
  c1624
  c1625
  c1626
  c1627
  c1628
  c1639
  c1641
  c1649
  c1650
  c1652
  c1657
  c1658
  c1662
  c1668
  c1670
  c1671
  c1674
  c1676
  c1679
  c168
  c1680
  c1687
  c1689
  c169
  c1692
  c1695
  c1696
  c1697
  c1698
  c1699
  c17
  c1700
  c1701
  c1702
  c1703
  c1704
  c1705
  c1706
  c1707
  c1708
  c1709
  c171
  c1710
  c1718
  c1719
  c1728
  c1730
  c1738
  c1739
  c1744
  c1747
  c1749
  c1750
  c1752
  c1753
  c1758
  c1760
  c1761
  c1763
  c1769
  c1771
  c1774
  c1777
  c1778
  c1779
  c1780
  c1781
  c1782
  c1783
  c1784
  c1785
  c1786
  c1787
  c1788
  c1789
  c1790
  c1791
  c1792
  c18
  c1800
  c1801
  c181
  c1810
  c1812
  c1820
  c1821
  c1826
  c1829
  c1832
  c1834
  c1835
  c1839
  c184
  c1842
  c1843
  c1845
  c1851
  c1853
  c1856
  c1859
  c1860
  c1861
  c1862
  c1863
  c1864
  c1865
  c1866
  c1867
  c1868
  c1869
  c1870
  c1871
  c1872
  c1873
  c1874
  c1882
  c1883
  c1892
  c1894
  c19
  c190
  c1902
  c1903
  c1908
  c1914
  c1916
  c1917
  c1921
  c1924
  c1925
  c1927
  c1933
  c1935
  c1938
  c194
  c1941
  c1942
  c1943
  c1944
  c1945
  c1946
  c1947
  c1948
  c1949
  c1950
  c1951
  c1952
  c1953
  c1954
  c1955
  c1956
  c1964
  c1965
  c197
  c1975
  c1979
  c1983
  c1987
  c199
  c1991
  c1995
  c1999
  c20
  c200
  c2003
  c2007
  c2011
  c2015
  c2019
  c2097
  c2098
  c2099
  c21
  c2100
  c2101
  c2102
  c2103
  c2104
  c2105
  c2106
  c2107
  c2108
  c2109
  c211
  c2110
  c2111
  c2112
  c2113
  c2114
  c2115
  c2119
  c212
  c2123
  c2127
  c213
  c2131
  c2135
  c2139
  c2143
  c2147
  c2151
  c2155
  c2157
  c2158
  c2167
  c2170
  c2177
  c2178
  c2186
  c2188
  c2189
  c219
  c2191
  c2192
  c2197
  c22
  c2201
  c2203
  c2208
  c2209
  c221
  c2216
  c2218
  c2221
  c2224
  c2225
  c2226
  c2227
  c2228
  c2229
  c2230
  c2231
  c2232
  c2233
  c2234
  c2235
  c2236
  c2237
  c2238
  c2239
  c2247
  c2248
  c2257
  c2260
  c2263
  c2267
  c2268
  c227
  c2276
  c2278
  c2279
  c228
  c2281
  c2282
  c229
  c2290
  c2291
  c2292
  c2298
  c23
  c2300
  c2303
  c2306
  c2307
  c2308
  c2309
  c231
  c2310
  c2311
  c2312
  c2313
  c2314
  c2315
  c2316
  c2317
  c2318
  c2319
  c232
  c2320
  c2321
  c2329
  c2330
  c234
  c2342
  c2345
  c235
  c2350
  c2351
  c2358
  c2360
  c2361
  c2363
  c2364
  c2367
  c237
  c2372
  c2373
  c238
  c2380
  c2382
  c2385
  c2388
  c2389
  c2390
  c2391
  c2392
  c2393
  c2394
  c2395
  c2396
  c2397
  c2398
  c2399
  c24
  c240
  c2400
  c2401
  c2402
  c2403
  c241
  c2411
  c2412
  c2421
  c2423
  c2431
  c2432
  c2440
  c2442
  c2443
  c2445
  c2446
  c2454
  c2455
  c2456
  c2462
  c2464
  c2467
  c2470
  c2471
  c2472
  c2473
  c2474
  c2475
  c2476
  c2477
  c2478
  c2479
  c2480
  c2481
  c2482
  c2483
  c2484
  c2485
  c2493
  c2494
  c25
  c250
  c2503
  c2505
  c251
  c2514
  c2515
  c2522
  c2524
  c2525
  c2527
  c2528
  c253
  c2536
  c2537
  c2538
  c2544
  c2546
  c2549
  c2552
  c2553
  c2554
  c2555
  c2556
  c2557
  c2558
  c2559
  c2560
  c2561
  c2562
  c2563
  c2564
  c2565
  c2566
  c2567
  c2575
  c2576
  c2585
  c2587
  c2595
  c2596
  c26
  c2604
  c2606
  c2607
  c2609
  c2610
  c2618
  c2619
  c2620
  c2626
  c2628
  c263
  c2631
  c2634
  c2635
  c2636
  c2637
  c2638
  c2639
  c2640
  c2641
  c2642
  c2643
  c2644
  c2645
  c2646
  c2647
  c2648
  c2649
  c2657
  c2658
  c266
  c2668
  c2672
  c2676
  c2680
  c2684
  c2688
  c2692
  c2696
  c27
  c2700
  c2704
  c2708
  c2712
  c272
  c276
  c279
  c2790
  c2791
  c2792
  c2793
  c2794
  c2795
  c2796
  c2797
  c2798
  c2799
  c28
  c2800
  c2801
  c2808
  c281
  c2812
  c2816
  c282
  c2820
  c2824
  c2828
  c2832
  c2836
  c2840
  c2844
  c2848
  c2851
  c2860
  c2872
  c2876
  c2879
  c288
  c2881
  c2882
  c2884
  c2885
  c2890
  c2894
  c2899
  c29
  c2911
  c2912
  c2913
  c2914
  c2917
  c2918
  c2919
  c2920
  c2921
  c2922
  c2924
  c2925
  c2926
  c2927
  c2928
  c2929
  c293
  c2930
  c2931
  c2932
  c294
  c2941
  c2950
  c2960
  c2969
  c2971
  c2972
  c2974
  c2975
  c2981
  c2993
  c2994
  c2995
  c2996
  c2999
  c30
  c3000
  c3001
  c3002
  c3003
  c3004
  c3006
  c3007
  c3008
  c3009
  c301
  c3010
  c3011
  c3012
  c3013
  c3014
  c3022
  c3023
  c3027
  c303
  c3035
  c3038
  c3044
  c3048
  c3051
  c3052
  c3053
  c3054
  c3056
  c3057
  c3063
  c3075
  c3076
  c3077
  c3078
  c3081
  c3082
  c3083
  c3084
  c3085
  c3086
  c3088
  c3089
  c309
  c3090
  c3091
  c3092
  c3093
  c3094
  c3095
  c3096
  c31
  c310
  c3105
  c311
  c3114
  c3124
  c313
  c3133
  c3135
  c3136
  c3138
  c3139
  c314
  c3145
  c3157
  c3158
  c3159
  c316
  c3160
  c3163
  c3164
  c3165
  c3166
  c3167
  c3168
  c317
  c3170
  c3171
  c3172
  c3173
  c3174
  c3175
  c3176
  c3177
  c3178
  c3187
  c319
  c3196
  c32
  c320
  c3206
  c3215
  c3217
  c3218
  c322
  c3220
  c3221
  c3227
  c323
  c3239
  c3240
  c3241
  c3242
  c3245
  c3246
  c3247
  c3248
  c3249
  c3250
  c3251
  c3252
  c3253
  c3254
  c3255
  c3256
  c3257
  c3258
  c3259
  c3269
  c3278
  c3290
  c3294
  c3297
  c3299
  c33
  c3300
  c3302
  c3303
  c3309
  c3321
  c3322
  c3323
  c3324
  c3327
  c3328
  c3329
  c333
  c3331
  c3332
  c3333
  c3334
  c3335
  c3336
  c3337
  c3338
  c3339
  c3340
  c3341
  c3342
  c335
  c3350
  c3351
  c3361
  c3365
  c3369
  c3373
  c3377
  c3381
  c3385
  c3389
  c3393
  c3397
  c34
  c3401
  c3405
  c342
  c345
  c3483
  c3484
  c3485
  c3486
  c3487
  c3488
  c3489
  c3490
  c3491
  c3492
  c3493
  c3494
  c3495
  c3496
  c3497
  c3498
  c3499
  c35
  c3500
  c3501
  c3505
  c3509
  c3513
  c3517
  c352
  c3521
  c3525
  c3529
  c353
  c3533
  c3537
  c354
  c3541
  c3544
  c3553
  c3563
  c3572
  c3574
  c358
  c3583
  c3587
  c3592
  c36
  c3604
  c3605
  c3606
  c3607
  c361
  c3610
  c3611
  c3612
  c3613
  c3614
  c3615
  c3616
  c3617
  c3618
  c3619
  c3620
  c3621
  c3622
  c3623
  c3624
  c3625
  c363
  c3634
  c364
  c3643
  c3653
  c3662
  c3664
  c3674
  c3686
  c3687
  c3688
  c3689
  c3692
  c3693
  c3694
  c3695
  c3696
  c3697
  c3698
  c3699
  c3700
  c3701
  c3702
  c3703
  c3704
  c3705
  c3706
  c3707
  c371
  c3718
  c3720
  c3728
  c3731
  c3737
  c3739
  c3741
  c3744
  c3746
  c375
  c3756
  c3768
  c3769
  c377
  c3770
  c3771
  c3774
  c3775
  c3776
  c3777
  c3778
  c3779
  c3780
  c3781
  c3782
  c3783
  c3784
  c3785
  c3786
  c3787
  c3788
  c3789
  c3798
  c3807
  c3817
  c3826
  c3828
  c383
  c3838
  c385
  c3850
  c3851
  c3852
  c3853
  c3856
  c3857
  c3858
  c3859
  c3860
  c3861
  c3862
  c3863
  c3864
  c3865
  c3866
  c3867
  c3868
  c3869
  c3870
  c3871
  c3880
  c3889
  c3899
  c3908
  c391
  c3910
  c392
  c3920
  c393
  c3932
  c3933
  c3934
  c3935
  c3938
  c3939
  c3940
  c3941
  c3942
  c3943
  c3944
  c3945
  c3946
  c3947
  c3948
  c3949
  c395
  c3950
  c3951
  c3952
  c3953
  c396
  c3962
  c3971
  c398
  c3981
  c399
  c3990
  c3992
  c4
  c40
  c4002
  c401
  c4014
  c4015
  c4016
  c4017
  c402
  c4020
  c4021
  c4022
  c4023
  c4024
  c4025
  c4026
  c4027
  c4028
  c4029
  c4030
  c4031
  c4032
  c4033
  c4034
  c4035
  c404
  c4043
  c4044
  c405
  c4054
  c4058
  c4062
  c4066
  c4070
  c4074
  c4078
  c4082
  c4086
  c4090
  c4094
  c4098
  c415
  c417
  c4176
  c4177
  c4178
  c4179
  c4180
  c4181
  c4182
  c4183
  c4184
  c4185
  c4186
  c4187
  c4194
  c4198
  c4202
  c4210
  c4214
  c4218
  c4222
  c4226
  c4230
  c4234
  c4236
  c424
  c4246
  c4256
  c4265
  c427
  c4276
  c4280
  c4285
  c4297
  c4298
  c4299
  c4300
  c4303
  c4304
  c4305
  c4307
  c4308
  c4310
  c4311
  c4313
  c4316
  c4317
  c4326
  c4336
  c434
  c4346
  c435
  c4355
  c436
  c4367
  c4379
  c4380
  c4381
  c4382
  c4385
  c4386
  c4387
  c4389
  c4390
  c4392
  c4393
  c4395
  c4398
  c4399
  c44
  c440
  c4408
  c4418
  c4428
  c443
  c4437
  c4449
  c445
  c446
  c4461
  c4462
  c4463
  c4464
  c4467
  c4468
  c4469
  c4471
  c4472
  c4474
  c4475
  c4477
  c4478
  c4480
  c4481
  c4490
  c4500
  c4510
  c4519
  c453
  c4531
  c4543
  c4544
  c4545
  c4546
  c4549
  c4550
  c4551
  c4553
  c4554
  c4556
  c4559
  c4560
  c4562
  c4563
  c457
  c4572
  c4582
  c459
  c4592
  c4601
  c4613
  c4625
  c4626
  c4627
  c4628
  c4631
  c4632
  c4633
  c4635
  c4636
  c4638
  c4641
  c4642
  c4644
  c4645
  c465
  c4654
  c4664
  c467
  c4674
  c4683
  c4695
  c4707
  c4708
  c4709
  c4710
  c4713
  c4714
  c4715
  c4717
  c4718
  c4720
  c4723
  c4724
  c4726
  c4727
  c473
  c4736
  c4737
  c474
  c4747
  c475
  c4751
  c4755
  c4759
  c4767
  c477
  c4771
  c4775
  c4779
  c478
  c4783
  c4787
  c4791
  c48
  c480
  c481
  c483
  c484
  c486
  c4869
  c487
  c4870
  c4871
  c4872
  c4873
  c4874
  c4875
  c4877
  c4878
  c4879
  c4880
  c4887
  c4930
  c4940
  c4950
  c4960
  c497
  c4978
  c4987
  c4996
  c500
  c5020
  c5030
  c5040
  c5050
  c506
  c5060
  c5069
  c5078
  c509
  c5102
  c5112
  c5122
  c5132
  c5142
  c5151
  c516
  c5160
  c518
  c5184
  c5194
  c52
  c5204
  c5214
  c522
  c5224
  c5233
  c5242
  c525
  c5266
  c527
  c5276
  c528
  c5286
  c5296
  c5306
  c5315
  c5324
  c5348
  c535
  c5358
  c5368
  c5378
  c5388
  c539
  c5397
  c5406
  c541
  c5429
  c5440
  c5444
  c5448
  c5452
  c5456
  c5460
  c5464
  c5468
  c547
  c5472
  c5476
  c5480
  c5484
  c549
  c555
  c5559
  c556
  c5562
  c5563
  c5564
  c5565
  c5566
  c5567
  c5568
  c5569
  c557
  c5570
  c5571
  c5572
  c5573
  c5580
  c5582
  c5586
  c559
  c5590
  c5594
  c5598
  c56
  c560
  c5602
  c5605
  c5609
  c5613
  c5617
  c562
  c5621
  c5625
  c563
  c5630
  c5634
  c5637
  c5638
  c5642
  c5646
  c565
  c5650
  c5654
  c5658
  c566
  c5661
  c5662
  c5666
  c5670
  c5674
  c5677
  c5678
  c568
  c5681
  c5682
  c5685
  c5686
  c5689
  c569
  c5690
  c5693
  c5694
  c5697
  c5698
  c5701
  c5702
  c5705
  c5706
  c5709
  c5710
  c5713
  c5714
  c5717
  c5718
  c5721
  c5722
  c5725
  c5726
  c5727
  c5729
  c5730
  c5731
  c5733
  c5734
  c5735
  c5737
  c5738
  c5739
  c5741
  c5742
  c5743
  c5745
  c5746
  c5747
  c5749
  c5750
  c5751
  c5753
  c5754
  c5755
  c5757
  c5758
  c5759
  c5761
  c5762
  c5763
  c5765
  c5766
  c5767
  c5769
  c5770
  c5771
  c5773
  c5774
  c5775
  c5777
  c5778
  c5779
  c578
  c5781
  c5782
  c5783
  c5785
  c5786
  c5788
  c5789
  c5790
  c5791
  c5794
  c5795
  c5796
  c5797
  c5798
  c5799
  c5801
  c5803
  c5807
  c589
  c593
  c597
  c6
  c60
  c601
  c605
  c609
  c613
  c617
  c621
  c625
  c629
  c633
  c64
  c68
  c711
  c712
  c713
  c714
  c715
  c716
  c717
  c718
  c719
  c72
  c720
  c721
  c722
  c729
  c733
  c737
  c741
  c745
  c749
  c753
  c757
  c76
  c761
  c765
  c769
  c771
  c774
  c78
  c784
  c787
  c79
  c792
  c793
  c797
  c800
  c803
  c81
  c811
  c815
  c817
  c822
  c823
  c830
  c832
  c838
  c839
  c840
  c841
  c842
  c843
  c844
  c845
  c846
  c847
  c848
  c849
  c850
  c851
  c852
  c853
  c861
  c864
  c874
  c877
  c881
  c882
  c883
  c887
  c890
  c893
  c899
  c904
  c905
  c91
  c912
  c914
  c920
  c921
  c922
  c923
  c924
  c925
  c926
  c927
  c928
  c929
  c930
  c931
  c932
  c933
  c934
  c935
  c94
  c943
  c946
  c956
  c959
  c963
  c964
  c965
  c969
  c972
  c975
  c981
  c986
  c987
  c994
  c996 )
